c description: Random 3-CNF over 21 variables and 89 clauses
c generator: CNFgen (0.9.2)
c copyright: (C) 2012-2022 Massimo Lauria <massimo.lauria@uniroma1.it>
c url: https://massimolauria.net/cnfgen
c command line: cnfgen --output CNF_4.28/21_bit_89_689.cnf randkcnf 3 21 89
c
p cnf 21 89
2 4 -17 0
6 17 21 0
-5 -15 19 0
-1 9 -15 0
2 -3 19 0
-12 -15 -19 0
3 -11 13 0
7 -9 -21 0
-5 -10 -17 0
-3 -10 -20 0
9 -19 -20 0
5 -14 -19 0
6 9 12 0
-1 7 -21 0
8 -11 17 0
-1 -9 15 0
-7 10 17 0
3 14 -17 0
-2 6 18 0
5 -7 -11 0
-1 4 -13 0
-1 -18 21 0
12 -20 21 0
6 -9 16 0
-9 10 -18 0
-10 12 -18 0
-14 18 21 0
-7 -13 -19 0
7 10 15 0
12 15 -16 0
2 -6 -12 0
-2 -12 -17 0
13 14 21 0
3 -13 -18 0
-8 12 13 0
5 11 -20 0
5 -10 15 0
5 -8 -11 0
-10 -14 -18 0
2 -14 21 0
3 -9 14 0
1 14 -17 0
5 19 20 0
2 -6 14 0
-5 12 18 0
-4 13 14 0
2 -13 -16 0
-11 -12 -13 0
-4 -6 14 0
-14 -18 20 0
-1 -15 -16 0
-2 -15 -20 0
-7 13 18 0
2 18 -21 0
2 6 12 0
-2 -10 -12 0
-6 -15 -16 0
-2 4 -7 0
-3 -10 -11 0
2 14 -19 0
11 18 -21 0
-12 -17 18 0
-2 18 20 0
12 17 -18 0
-2 -8 -21 0
-13 -14 20 0
4 9 -19 0
6 8 -14 0
-6 15 -20 0
-2 -7 20 0
8 12 17 0
1 3 -8 0
-1 11 -15 0
-9 10 14 0
-6 19 -20 0
-6 -19 -21 0
-5 10 11 0
-9 -13 15 0
4 -11 15 0
5 -6 18 0
1 15 -18 0
3 8 15 0
4 7 8 0
-4 6 14 0
1 17 19 0
2 -13 19 0
-2 -6 -12 0
-11 15 17 0
7 -17 18 0
